language ESSENCE' 1.0

letting jobs = 102
letting horizon = 743
letting resourcesRenew = 2
letting resourcesNonrenew = 2
letting resourceLimits = [44, 41, 538, 525]
letting successors = [[2, 3, 4, 5, 6, 8, 9, 10, 11, 12, 14, 16, 17, 18, 19, 20, 21, 22, 24, 28, 30], [47, 45, 41, 40, 38, 37, 35, 34, 33, 32, 29, 27, 25, 15], [62, 53, 45, 41, 40, 38, 36, 32, 23, 13], [74, 48, 41, 40, 39, 37, 35, 7], [74, 66, 54, 53, 51, 48, 44, 42, 41, 40, 36, 35, 34, 33, 32, 26], [74, 66, 62, 61, 57, 53, 51, 50, 47, 46, 43, 42, 41, 40, 38, 37, 32], [66, 53, 52, 50, 49, 45, 44, 38, 36, 34, 33, 31], [74, 66, 62, 61, 48, 40, 39, 33, 31, 29], [67, 66, 62, 56, 54, 53, 52, 50, 49, 47, 46, 43, 42, 36, 34, 32], [74, 67, 66, 56, 53, 51, 46, 45, 43, 41, 37, 36, 34, 32], [74, 67, 66, 63, 59, 56, 55, 52, 51, 49, 45, 44, 43, 42, 39, 34], [81, 74, 61, 59, 57, 56, 50, 49, 48, 46, 43, 41, 40, 31], [74, 61, 56, 52, 47, 43, 37, 35, 31, 29], [101, 74, 66, 62, 61, 59, 56, 55, 54, 52, 51, 49, 48, 47, 46, 33], [81, 74, 67, 59, 57, 56, 55, 52, 50, 49, 48, 46, 43, 31], [67, 56, 55, 52, 50, 43, 35, 31], [101, 74, 71, 63, 60, 55, 52, 51, 45, 44, 38, 35], [74, 67, 57, 49, 43, 32, 31], [81, 70, 67, 63, 55, 54, 52, 51, 50, 49, 46, 45, 42], [66, 63, 62, 60, 54, 53, 51, 49, 46, 40, 36], [74, 71, 70, 63, 62, 55, 52, 51, 50, 35], [74, 68, 59, 57, 52, 51, 50, 48, 44, 43], [101, 69, 66, 63, 59, 52, 51, 43, 34], [81, 68, 64, 61, 60, 56, 54, 53, 52, 51, 44], [81, 67, 66, 59, 54, 53, 51, 49, 46, 36], [81, 68, 63, 55, 50, 43, 38], [101, 88, 81, 77, 75, 67, 62, 56, 51, 48, 43], [81, 70, 67, 65, 63, 55, 54, 52, 51, 42], [81, 68, 67, 64, 59, 54, 50, 49, 44], [101, 88, 81, 75, 72, 70, 69, 68, 67, 66, 64, 63, 62, 60, 56, 49], [75, 69, 65, 63, 54, 51, 42], [101, 88, 81, 77, 70, 65, 64, 63, 60, 59, 58, 55], [88, 77, 75, 69, 68, 67, 58, 43], [81, 77, 71, 70, 68, 65, 64, 61, 60, 58, 57], [81, 76, 68, 64, 59, 49, 46], [101, 88, 86, 80, 77, 76, 75, 72, 71, 70, 69, 68, 64, 58], [88, 87, 81, 76, 75, 72, 70, 68, 63, 49], [88, 77, 72, 70, 69, 67, 65, 59, 58, 56], [101, 85, 80, 78, 75, 73, 70, 68, 65, 64, 54], [101, 80, 77, 76, 73, 68, 67, 65, 55], [86, 78, 77, 76, 70, 68, 63, 52], [101, 86, 77, 68, 64, 60, 58], [85, 73, 72, 71, 70, 65, 64, 60], [72, 65, 46], [97, 88, 87, 86, 80, 75, 68, 58], [100, 88, 86, 84, 80, 79, 77, 69, 58], [100, 99, 88, 87, 85, 83, 81, 79, 76, 73, 72, 65], [100, 99, 87, 84, 78, 76, 73, 69, 65, 63], [100, 97, 84, 80, 79, 77, 65, 58], [101, 96, 95, 88, 87, 85, 83, 77, 60], [97, 86, 84, 80, 76, 58], [100, 99, 97, 96, 95, 88, 87, 84, 83, 82, 80, 79, 75], [101, 100, 97, 94, 86, 77, 73, 70], [100, 99, 98, 97, 96, 88, 86, 76, 71], [99, 97, 96, 87, 85, 84, 78, 75, 72], [100, 99, 98, 96, 95, 87, 85, 84, 82, 80, 79], [100, 97, 96, 92, 86, 84, 80, 79, 78, 76], [99, 98, 96, 94, 93, 85, 83, 78, 73], [99, 96, 94, 83, 80, 79, 78, 75], [100, 99, 98, 97, 93, 92, 84, 82, 80, 76], [99, 98, 97, 96, 95, 94, 93, 88, 75], [100, 98, 97, 96, 95, 93, 92, 83, 76], [98, 97, 96, 94, 85, 82, 79], [99, 98, 97, 96, 95, 92, 89, 87], [96, 95, 94, 93, 89, 86, 82], [98, 97, 95, 94, 89, 77], [97, 94, 93, 92, 91, 90, 83], [100, 90, 84, 83, 79], [97, 96, 94, 91, 89, 85], [99, 98, 96, 83, 82], [95, 92, 82, 79], [98, 95, 93, 89, 82], [95, 91, 89, 82], [96, 93, 89, 87], [92, 91, 90, 89], [94, 91, 90], [93, 92, 90], [95, 82], [93, 89], [91, 89], [97, 91], [90], [89], [94], [92], [91], [91], [92], [102], [102], [102], [102], [102], [102], [102], [102], [102], [102], [102], [102], [102], []]
letting durations = [[0], [1, 2, 5], [1, 2, 8], [1, 2, 4], [5, 5, 8], [1, 8, 10], [2, 5, 10], [8, 8, 9], [3, 3, 9], [2, 5, 6], [2, 4, 9], [1, 6, 9], [2, 9, 10], [3, 8, 9], [2, 6, 8], [3, 4, 10], [5, 7, 8], [5, 6, 7], [1, 1, 3], [1, 2, 4], [1, 2, 6], [3, 6, 7], [8, 9, 10], [2, 3, 7], [2, 4, 7], [2, 3, 4], [3, 4, 7], [1, 2, 9], [5, 5, 10], [3, 5, 7], [3, 5, 6], [1, 4, 6], [5, 9, 10], [1, 2, 3], [6, 7, 8], [3, 4, 8], [1, 5, 7], [1, 8, 10], [4, 5, 9], [4, 6, 9], [1, 3, 5], [1, 2, 3], [1, 6, 9], [5, 9, 9], [4, 5, 7], [3, 4, 5], [2, 6, 9], [2, 3, 9], [1, 4, 9], [3, 8, 9], [8, 9, 10], [1, 2, 6], [3, 3, 4], [5, 6, 9], [2, 6, 10], [2, 5, 6], [1, 2, 5], [1, 7, 8], [3, 7, 8], [1, 2, 3], [2, 5, 7], [3, 4, 10], [1, 2, 8], [1, 3, 5], [2, 8, 9], [5, 8, 10], [4, 7, 8], [3, 7, 8], [6, 8, 9], [1, 2, 3], [1, 7, 8], [5, 6, 7], [2, 3, 5], [4, 7, 10], [2, 2, 9], [3, 6, 6], [5, 8, 9], [5, 7, 9], [2, 4, 10], [2, 5, 5], [2, 5, 7], [1, 4, 5], [3, 6, 6], [3, 8, 9], [4, 7, 8], [2, 4, 6], [3, 7, 8], [1, 5, 6], [2, 5, 9], [3, 4, 6], [2, 4, 6], [2, 5, 6], [2, 7, 9], [6, 9, 10], [1, 2, 6], [1, 2, 6], [1, 1, 6], [5, 7, 10], [1, 8, 9], [2, 3, 4], [1, 6, 7], [0]]
letting resourceUsage = [[[0, 0, 0, 0]], [[5, 0, 4, 4], [3, 0, 3, 3], [0, 3, 2, 3]], [[0, 4, 7, 3], [0, 3, 5, 3], [0, 2, 5, 3]], [[4, 0, 7, 3], [2, 0, 6, 3], [0, 3, 6, 3]], [[0, 2, 8, 3], [3, 0, 4, 2], [3, 0, 1, 2]], [[4, 0, 6, 9], [2, 0, 6, 5], [1, 0, 6, 3]], [[4, 0, 5, 4], [3, 0, 4, 3], [0, 4, 3, 2]], [[3, 0, 4, 9], [0, 2, 3, 9], [2, 0, 3, 9]], [[0, 2, 2, 3], [4, 0, 2, 2], [0, 2, 2, 2]], [[0, 3, 6, 9], [2, 0, 6, 4], [0, 2, 6, 2]], [[3, 0, 7, 9], [0, 4, 7, 8], [3, 0, 7, 8]], [[4, 0, 6, 7], [0, 1, 6, 6], [0, 1, 6, 5]], [[2, 0, 3, 5], [2, 0, 2, 4], [2, 0, 1, 4]], [[4, 0, 8, 9], [4, 0, 8, 5], [0, 4, 8, 3]], [[3, 0, 5, 4], [2, 0, 5, 3], [0, 2, 4, 3]], [[0, 3, 2, 3], [0, 2, 1, 2], [0, 1, 1, 1]], [[2, 0, 8, 7], [1, 0, 6, 6], [0, 3, 3, 4]], [[0, 3, 2, 10], [0, 3, 2, 4], [0, 3, 2, 3]], [[0, 3, 10, 6], [3, 0, 8, 4], [0, 1, 8, 4]], [[0, 2, 3, 6], [0, 1, 2, 4], [0, 1, 2, 3]], [[0, 3, 5, 4], [0, 3, 4, 2], [2, 0, 4, 2]], [[0, 4, 9, 8], [3, 0, 8, 6], [0, 4, 8, 6]], [[3, 0, 7, 6], [0, 2, 7, 4], [0, 1, 6, 4]], [[4, 0, 7, 8], [2, 0, 4, 6], [1, 0, 2, 6]], [[0, 3, 8, 4], [4, 0, 5, 3], [0, 2, 4, 3]], [[0, 3, 10, 7], [2, 0, 9, 5], [2, 0, 9, 4]], [[2, 0, 9, 3], [0, 3, 7, 2], [0, 3, 4, 2]], [[0, 1, 8, 6], [4, 0, 8, 5], [0, 1, 8, 4]], [[3, 0, 1, 9], [0, 1, 1, 8], [0, 1, 1, 7]], [[4, 0, 7, 8], [0, 4, 5, 8], [0, 4, 4, 8]], [[0, 1, 3, 4], [0, 1, 3, 3], [0, 1, 3, 2]], [[0, 1, 9, 6], [4, 0, 6, 6], [0, 1, 5, 4]], [[4, 0, 5, 8], [0, 3, 5, 7], [0, 2, 4, 7]], [[3, 0, 7, 9], [0, 3, 7, 6], [0, 3, 4, 5]], [[0, 5, 10, 6], [0, 3, 8, 6], [1, 0, 8, 6]], [[0, 2, 8, 6], [3, 0, 6, 5], [0, 1, 1, 4]], [[1, 0, 6, 10], [0, 3, 5, 8], [1, 0, 4, 8]], [[0, 1, 8, 8], [0, 1, 5, 8], [0, 1, 5, 7]], [[1, 0, 2, 4], [0, 1, 2, 4], [0, 1, 2, 3]], [[0, 5, 4, 7], [0, 3, 3, 5], [0, 2, 2, 4]], [[0, 4, 7, 8], [1, 0, 5, 6], [1, 0, 4, 6]], [[4, 0, 6, 10], [0, 4, 5, 9], [0, 4, 5, 8]], [[0, 4, 10, 10], [3, 0, 10, 7], [0, 3, 10, 7]], [[1, 0, 8, 5], [0, 2, 8, 3], [1, 0, 8, 2]], [[0, 4, 6, 6], [2, 0, 6, 5], [2, 0, 4, 5]], [[0, 4, 8, 5], [0, 3, 3, 3], [3, 0, 2, 1]], [[3, 0, 5, 7], [0, 4, 5, 6], [0, 4, 4, 4]], [[5, 0, 6, 3], [3, 0, 5, 3], [0, 3, 3, 3]], [[0, 1, 8, 9], [0, 1, 6, 8], [2, 0, 5, 8]], [[4, 0, 3, 2], [4, 0, 2, 2], [0, 2, 2, 1]], [[5, 0, 8, 8], [5, 0, 7, 7], [0, 2, 6, 7]], [[4, 0, 7, 6], [0, 3, 4, 3], [0, 1, 4, 2]], [[0, 3, 4, 8], [1, 0, 3, 6], [0, 2, 3, 6]], [[3, 0, 6, 10], [0, 3, 4, 7], [2, 0, 3, 4]], [[0, 3, 10, 7], [0, 3, 5, 5], [0, 2, 5, 5]], [[4, 0, 8, 10], [0, 4, 8, 9], [0, 3, 7, 9]], [[3, 0, 8, 10], [3, 0, 6, 5], [3, 0, 4, 3]], [[4, 0, 8, 3], [3, 0, 6, 2], [1, 0, 3, 1]], [[5, 0, 10, 3], [0, 3, 9, 3], [0, 3, 9, 2]], [[0, 5, 4, 4], [0, 5, 4, 3], [2, 0, 3, 2]], [[4, 0, 9, 1], [0, 4, 9, 1], [0, 3, 9, 1]], [[0, 3, 6, 5], [0, 3, 5, 5], [1, 0, 4, 3]], [[4, 0, 8, 8], [3, 0, 7, 8], [1, 0, 7, 7]], [[4, 0, 7, 7], [0, 2, 7, 5], [0, 1, 6, 4]], [[0, 4, 6, 9], [3, 0, 5, 9], [3, 0, 2, 9]], [[3, 0, 6, 1], [3, 0, 4, 1], [0, 1, 4, 1]], [[0, 2, 9, 8], [0, 2, 9, 6], [0, 1, 9, 6]], [[0, 4, 6, 6], [0, 4, 4, 6], [0, 4, 3, 5]], [[0, 4, 10, 7], [3, 0, 6, 6], [3, 0, 3, 5]], [[0, 5, 6, 6], [0, 2, 6, 3], [0, 1, 5, 3]], [[5, 0, 3, 4], [0, 2, 3, 3], [0, 2, 2, 3]], [[5, 0, 7, 8], [4, 0, 6, 7], [2, 0, 2, 7]], [[0, 2, 8, 5], [0, 2, 6, 4], [2, 0, 5, 3]], [[0, 1, 4, 10], [4, 0, 4, 8], [3, 0, 3, 8]], [[4, 0, 7, 8], [0, 5, 5, 6], [0, 5, 4, 5]], [[2, 0, 6, 3], [0, 2, 5, 1], [1, 0, 5, 1]], [[0, 3, 8, 8], [4, 0, 8, 5], [0, 2, 8, 3]], [[0, 2, 7, 7], [3, 0, 4, 5], [3, 0, 4, 4]], [[2, 0, 9, 8], [0, 3, 9, 7], [0, 3, 9, 6]], [[4, 0, 9, 3], [0, 2, 3, 3], [4, 0, 1, 3]], [[0, 1, 8, 9], [0, 1, 3, 8], [0, 1, 2, 7]], [[0, 3, 9, 5], [0, 2, 9, 4], [2, 0, 9, 4]], [[0, 3, 8, 9], [0, 2, 6, 9], [2, 0, 3, 9]], [[2, 0, 6, 3], [2, 0, 5, 2], [1, 0, 2, 1]], [[0, 3, 3, 9], [0, 3, 1, 7], [0, 2, 1, 5]], [[3, 0, 5, 3], [0, 3, 3, 3], [2, 0, 1, 3]], [[0, 5, 7, 7], [3, 0, 5, 7], [3, 0, 3, 6]], [[0, 4, 4, 4], [0, 3, 3, 2], [0, 3, 2, 1]], [[0, 5, 3, 5], [3, 0, 2, 4], [3, 0, 1, 4]], [[2, 0, 8, 2], [0, 3, 7, 2], [0, 3, 6, 1]], [[0, 5, 4, 8], [3, 0, 3, 5], [0, 1, 2, 3]], [[3, 0, 9, 7], [0, 3, 8, 6], [0, 3, 8, 5]], [[3, 0, 3, 3], [0, 1, 3, 3], [0, 1, 3, 2]], [[1, 0, 9, 9], [1, 0, 9, 6], [0, 3, 9, 4]], [[0, 4, 7, 2], [0, 4, 7, 1], [0, 3, 5, 1]], [[0, 4, 7, 7], [0, 4, 6, 5], [0, 4, 3, 4]], [[0, 1, 8, 8], [5, 0, 5, 6], [0, 1, 3, 5]], [[0, 3, 4, 9], [0, 2, 4, 7], [0, 2, 4, 6]], [[0, 5, 6, 8], [3, 0, 6, 5], [0, 4, 5, 4]], [[1, 0, 5, 3], [1, 0, 2, 2], [1, 0, 1, 2]], [[3, 0, 8, 8], [3, 0, 7, 7], [0, 2, 3, 5]], [[0, 0, 0, 0]]]
